70
1 0 5
2 0 7
2 1 5
3 0 11
3 2 9
4 3 9
5 1 6
5 2 4
5 4 9
6 0 5
6 1 4
6 3 6
6 5 10
7 0 9
7 1 6
7 3 6
7 4 1
7 5 9
7 6 10
8 1 4
8 2 1
8 6 2
8 7 5
9 1 4
9 3 4
9 4 2
9 5 4
10 0 3
10 1 4
10 2 7
10 5 7
10 9 7
11 1 9
11 5 6
11 6 5
11 7 7
11 8 10
12 0 4
12 6 6
12 7 11
12 8 5
12 9 11
12 10 1
13 1 1
13 2 3
13 3 8
13 5 6
13 6 9
13 10 11
13 12 2
14 0 1
14 3 3
14 5 1
14 7 2
14 10 9
14 11 1
15 0 3
15 1 7
15 4 1
15 5 4
15 7 8
15 8 7
15 9 7
15 11 7
15 13 1
15 14 9
16 2 10
16 4 1
16 5 3
16 7 11
16 9 5
16 12 9
16 14 7
16 15 6
17 1 11
17 3 2
17 10 3
17 13 8
17 15 11
17 16 10
18 3 7
18 4 1
18 6 1
18 7 4
18 8 10
18 9 7
18 10 6
18 11 9
18 12 5
18 13 7
18 14 6
19 1 5
19 2 10
19 6 10
19 7 8
19 10 3
19 13 11
19 15 7
19 16 2
19 18 5
20 0 5
20 1 10
20 4 1
20 5 6
20 8 3
20 10 3
20 11 10
20 14 8
20 15 11
20 16 9
20 17 5
21 0 4
21 3 1
21 6 1
21 9 5
21 12 4
21 13 7
21 14 7
21 15 9
21 17 1
21 18 9
21 19 6
22 3 2
22 4 8
22 6 7
22 7 6
22 10 6
22 11 10
22 12 8
22 14 4
22 20 7
23 4 6
23 5 9
23 7 6
23 8 7
23 11 10
23 12 11
23 13 2
23 17 4
23 18 1
23 20 2
23 21 5
23 22 9
24 0 2
24 1 7
24 3 4
24 6 8
24 10 6
24 11 11
24 12 8
24 13 10
24 14 1
24 17 5
24 18 9
24 19 9
24 20 5
24 21 7
24 22 4
25 1 10
25 2 2
25 4 2
25 5 6
25 7 3
25 8 5
25 10 1
25 12 1
25 15 11
25 16 9
25 18 9
25 19 10
26 0 11
26 1 3
26 10 1
26 13 3
26 19 11
26 20 8
26 21 3
26 22 2
26 25 11
27 1 4
27 3 3
27 7 10
27 8 6
27 9 8
27 11 1
27 14 8
27 15 8
27 18 11
27 19 8
27 20 7
27 24 10
27 26 1
28 0 7
28 2 8
28 10 10
28 12 9
28 13 8
28 14 1
28 15 7
28 16 5
28 17 10
28 18 2
28 19 1
28 20 9
28 21 6
28 22 5
28 23 6
28 25 1
28 27 1
29 0 4
29 5 2
29 10 2
29 11 9
29 13 11
29 14 4
29 17 7
29 20 1
29 21 7
29 23 10
29 26 9
29 27 5
30 0 7
30 1 5
30 3 7
30 15 6
30 19 10
30 21 5
30 22 6
30 24 9
30 27 5
30 28 7
30 29 7
31 2 4
31 3 4
31 6 3
31 7 10
31 10 3
31 11 5
31 12 10
31 15 11
31 17 2
31 18 6
31 20 8
31 22 7
31 23 1
31 26 2
31 27 10
31 28 8
31 29 7
31 30 11
32 1 4
32 4 6
32 10 9
32 11 8
32 12 5
32 14 7
32 15 9
32 16 1
32 17 2
32 18 6
32 19 9
32 20 4
32 21 1
32 23 3
32 24 4
32 26 10
32 28 7
33 1 6
33 3 5
33 8 3
33 12 1
33 17 7
33 18 3
33 20 6
33 22 4
33 31 10
33 32 9
34 1 3
34 7 9
34 8 6
34 10 7
34 11 7
34 12 5
34 16 3
34 17 5
34 18 1
34 19 9
34 21 2
34 26 1
34 27 10
34 28 6
34 30 1
34 31 3
34 32 7
34 33 9
35 1 10
35 3 1
35 5 9
35 9 5
35 10 11
35 11 10
35 12 1
35 13 1
35 15 2
35 18 4
35 21 7
35 22 5
35 24 7
35 26 2
35 27 6
35 28 4
35 29 3
35 30 10
35 32 11
35 33 3
36 1 8
36 2 7
36 3 5
36 4 2
36 5 2
36 6 11
36 8 3
36 9 7
36 12 10
36 13 8
36 16 2
36 18 7
36 19 2
36 24 11
36 25 6
36 26 8
36 27 7
36 29 3
36 32 9
36 35 11
37 0 6
37 4 11
37 7 3
37 9 10
37 14 2
37 15 11
37 16 9
37 23 3
37 24 1
37 30 10
37 33 1
37 36 3
38 0 1
38 3 3
38 4 11
38 5 5
38 6 4
38 8 3
38 13 2
38 14 2
38 15 9
38 21 6
38 25 5
38 26 7
38 30 8
38 31 5
38 33 2
38 35 9
39 1 4
39 4 11
39 5 2
39 6 3
39 7 1
39 8 2
39 9 8
39 11 3
39 15 3
39 16 5
39 17 9
39 18 2
39 19 6
39 22 8
39 24 10
39 25 1
39 26 1
39 28 11
39 30 6
39 33 3
39 35 1
39 38 2
40 0 9
40 6 9
40 7 2
40 8 5
40 9 8
40 10 10
40 12 11
40 13 3
40 14 3
40 16 9
40 17 10
40 18 11
40 19 6
40 20 10
40 21 10
40 28 8
40 31 9
40 32 1
40 33 11
40 35 2
40 36 6
40 38 10
40 39 6
41 0 10
41 3 7
41 7 1
41 10 6
41 12 10
41 14 8
41 15 9
41 18 3
41 20 4
41 21 10
41 22 6
41 30 2
41 34 2
41 39 11
41 40 8
42 0 11
42 2 11
42 3 7
42 4 10
42 5 7
42 9 7
42 11 5
42 12 9
42 14 5
42 16 5
42 17 10
42 23 9
42 25 9
42 27 4
42 32 5
42 35 1
42 37 3
42 41 2
43 1 7
43 2 9
43 6 11
43 7 9
43 8 3
43 9 10
43 10 8
43 12 7
43 16 7
43 17 3
43 19 2
43 20 9
43 21 10
43 22 5
43 23 6
43 25 4
43 29 9
43 32 4
43 33 3
43 35 3
43 36 6
43 39 7
43 40 4
43 41 5
43 42 8
44 0 10
44 2 8
44 4 11
44 5 4
44 6 7
44 12 5
44 18 9
44 21 7
44 24 8
44 26 10
44 27 8
44 29 11
44 31 8
44 32 5
44 34 6
44 36 5
44 37 4
44 38 11
44 39 6
44 40 4
44 41 6
44 42 8
45 0 6
45 3 9
45 4 1
45 7 1
45 8 7
45 9 6
45 13 9
45 16 8
45 20 8
45 23 7
45 24 7
45 27 5
45 28 5
45 30 1
45 32 1
45 34 9
45 35 8
45 37 3
45 39 3
45 42 2
45 44 4
46 2 5
46 3 10
46 4 3
46 5 11
46 6 8
46 10 10
46 12 6
46 13 11
46 16 10
46 19 6
46 20 8
46 21 4
46 22 4
46 23 4
46 24 3
46 25 10
46 28 11
46 30 3
46 33 3
46 37 6
46 39 7
46 42 4
46 43 8
46 45 4
47 0 9
47 1 7
47 2 9
47 3 8
47 5 2
47 7 3
47 8 9
47 9 11
47 10 10
47 14 3
47 15 4
47 16 2
47 19 4
47 21 9
47 22 11
47 24 11
47 25 2
47 27 10
47 28 1
47 29 6
47 33 4
47 34 1
47 35 1
47 36 7
47 43 11
47 44 6
47 46 3
48 2 8
48 4 5
48 5 5
48 9 1
48 11 10
48 14 9
48 17 3
48 20 1
48 22 5
48 23 9
48 25 7
48 31 8
48 35 11
48 38 2
48 47 6
49 0 11
49 5 7
49 6 4
49 8 6
49 12 7
49 13 1
49 16 3
49 17 11
49 18 6
49 21 2
49 22 6
49 23 3
49 24 2
49 25 10
49 26 6
49 33 3
49 34 7
49 36 5
49 37 7
49 38 4
49 39 8
49 42 10
49 43 9
49 44 5
50 0 6
50 2 1
50 3 1
50 7 9
50 9 8
50 10 6
50 11 8
50 12 10
50 13 1
50 15 6
50 17 5
50 19 9
50 22 7
50 23 2
50 24 4
50 26 11
50 29 2
50 33 3
50 37 8
50 40 6
50 41 2
50 42 10
50 43 4
50 44 4
50 45 5
50 46 9
50 47 1
50 49 5
51 3 5
51 4 6
51 8 10
51 9 3
51 11 9
51 13 3
51 15 9
51 16 10
51 17 1
51 19 4
51 22 10
51 23 7
51 26 10
51 28 7
51 31 3
51 32 7
51 33 10
51 38 10
51 41 7
51 49 10
52 2 4
52 3 10
52 4 11
52 5 4
52 9 1
52 10 9
52 13 3
52 15 9
52 17 10
52 18 1
52 19 6
52 23 8
52 27 2
52 29 7
52 31 11
52 32 10
52 33 4
52 34 5
52 36 3
52 38 11
52 40 9
52 41 10
52 43 4
52 44 3
52 48 5
53 1 11
53 4 2
53 5 2
53 6 10
53 7 3
53 14 5
53 15 7
53 17 5
53 19 8
53 21 11
53 22 3
53 25 6
53 27 5
53 32 3
53 33 6
53 34 1
53 35 9
53 36 5
53 37 8
53 41 6
53 44 8
53 45 7
53 46 6
53 49 3
54 7 3
54 8 2
54 9 11
54 11 4
54 16 9
54 17 8
54 20 7
54 23 4
54 24 8
54 25 7
54 26 8
54 27 7
54 28 1
54 32 3
54 33 4
54 36 3
54 37 5
54 39 1
54 41 10
54 45 1
54 46 5
54 48 8
54 49 7
54 50 7
55 1 4
55 4 2
55 11 8
55 12 6
55 13 7
55 14 4
55 16 9
55 17 3
55 18 7
55 19 11
55 20 10
55 21 7
55 27 10
55 29 7
55 30 11
55 36 4
55 38 1
55 40 5
55 42 2
55 45 7
55 47 11
55 48 11
55 50 2
55 51 5
55 54 3
56 1 5
56 2 9
56 4 2
56 7 10
56 9 10
56 11 11
56 14 10
56 17 6
56 19 3
56 22 4
56 26 5
56 28 4
56 30 7
56 31 2
56 34 4
56 35 9
56 36 2
56 39 10
56 40 6
56 44 6
56 45 3
56 46 11
56 48 2
56 50 8
56 54 5
57 2 1
57 3 4
57 5 5
57 6 4
57 7 10
57 9 4
57 11 4
57 14 8
57 15 1
57 17 4
57 18 6
57 19 9
57 23 10
57 25 11
57 26 8
57 27 5
57 29 6
57 30 6
57 31 8
57 32 2
57 33 5
57 34 7
57 35 10
57 41 5
57 42 8
57 47 11
57 49 1
57 51 7
57 52 4
57 53 9
57 56 9
58 2 2
58 4 3
58 5 11
58 6 4
58 7 8
58 8 6
58 12 3
58 13 7
58 14 6
58 16 9
58 18 4
58 21 2
58 23 1
58 24 10
58 26 9
58 32 3
58 34 11
58 35 10
58 38 9
58 40 5
58 41 10
58 43 9
58 48 5
58 49 5
58 51 8
58 53 3
58 54 8
58 57 11
59 1 8
59 4 6
59 5 2
59 9 6
59 10 10
59 12 10
59 14 4
59 18 10
59 19 2
59 23 2
59 24 4
59 27 8
59 29 2
59 32 2
59 33 7
59 35 11
59 38 8
59 41 1
59 42 4
59 46 6
59 52 10
59 53 8
59 55 8
59 56 10
59 57 7
60 6 1
60 7 3
60 9 10
60 10 10
60 11 2
60 13 11
60 19 1
60 20 8
60 22 9
60 23 4
60 30 2
60 32 6
60 33 11
60 37 10
60 38 4
60 40 8
60 43 6
60 44 2
60 46 10
60 49 6
60 50 4
60 53 7
60 55 10
60 56 5
60 57 7
61 2 7
61 4 7
61 6 11
61 8 9
61 9 7
61 11 8
61 14 11
61 15 5
61 16 1
61 18 2
61 20 8
61 22 2
61 23 11
61 24 1
61 25 6
61 27 7
61 28 2
61 31 6
61 33 5
61 34 10
61 35 11
61 36 3
61 40 6
61 41 5
61 43 7
61 44 8
61 46 3
61 52 4
61 56 6
61 57 5
61 59 8
62 2 6
62 5 11
62 7 6
62 8 6
62 15 9
62 16 11
62 23 6
62 24 1
62 27 10
62 28 2
62 31 10
62 33 11
62 34 2
62 35 5
62 36 10
62 38 6
62 41 2
62 42 5
62 45 10
62 47 7
62 48 2
62 52 9
62 53 6
62 54 1
62 57 2
62 58 5
62 59 7
63 1 2
63 3 1
63 7 4
63 10 2
63 11 8
63 12 6
63 16 9
63 17 11
63 20 9
63 23 5
63 24 5
63 26 3
63 28 2
63 30 4
63 31 9
63 33 7
63 35 5
63 39 2
63 42 4
63 43 3
63 44 2
63 45 9
63 46 9
63 50 3
63 54 11
63 57 5
63 59 3
63 61 10
63 62 7
64 0 7
64 4 9
64 5 2
64 7 4
64 11 3
64 15 10
64 17 1
64 18 7
64 19 2
64 20 1
64 23 9
64 24 10
64 27 1
64 29 3
64 30 3
64 33 5
64 37 10
64 39 5
64 40 11
64 41 1
64 43 10
64 45 3
64 46 10
64 50 10
64 51 3
64 52 4
64 53 4
64 54 4
64 55 4
64 56 4
64 57 7
64 62 5
64 63 5
65 0 11
65 5 8
65 8 2
65 9 5
65 10 8
65 11 1
65 12 1
65 13 11
65 14 5
65 15 6
65 17 4
65 19 11
65 20 6
65 21 11
65 22 10
65 24 8
65 25 1
65 29 8
65 30 10
65 31 5
65 32 7
65 35 2
65 36 11
65 38 11
65 40 4
65 45 7
65 46 11
65 47 6
65 48 5
65 49 6
65 52 11
65 53 10
65 55 4
65 60 5
65 61 7
65 62 7
65 63 10
66 2 6
66 3 3
66 4 3
66 9 10
66 10 6
66 12 9
66 14 11
66 15 8
66 16 11
66 17 5
66 19 10
66 23 7
66 29 2
66 30 10
66 32 2
66 33 1
66 34 10
66 35 4
66 36 5
66 37 5
66 39 4
66 42 5
66 43 5
66 45 5
66 52 2
66 54 8
66 56 10
66 58 11
66 59 10
66 60 7
66 62 7
66 63 2
66 64 10
66 65 5
67 3 5
67 6 5
67 7 4
67 11 4
67 12 6
67 17 6
67 18 5
67 22 7
67 24 8
67 25 9
67 27 8
67 30 11
67 31 6
67 36 3
67 37 11
67 38 4
67 39 2
67 40 3
67 41 10
67 44 11
67 48 10
67 50 7
67 51 8
67 52 1
67 53 3
67 54 8
67 55 8
67 56 11
67 60 11
67 61 11
67 64 10
67 66 10
68 1 5
68 4 8
68 6 7
68 7 9
68 11 5
68 12 9
68 13 7
68 15 4
68 16 3
68 19 8
68 20 5
68 21 9
68 22 10
68 23 4
68 24 1
68 25 5
68 29 10
68 32 6
68 33 9
68 41 10
68 42 2
68 43 6
68 44 3
68 48 2
68 49 3
68 50 5
68 51 6
68 59 6
68 63 11
68 65 3
69 1 9
69 2 8
69 4 7
69 5 10
69 6 4
69 13 11
69 14 7
69 18 1
69 21 3
69 22 3
69 23 3
69 25 5
69 26 5
69 29 5
69 30 1
69 31 4
69 32 4
69 35 1
69 36 9
69 37 11
69 40 1
69 44 4
69 45 6
69 47 2
69 48 10
69 49 4
69 51 10
69 52 9
69 54 7
69 56 1
69 57 2
69 58 2
69 59 6
69 62 11
69 64 2
69 65 11
69 67 5
69 68 5
